SPARKNaCl/why3-cvc5/sparknacl-utils.adb_238_25_predicate_check_1.smt2
;; produced by cvc5.drv ;;
(set-logic ALL)
(set-info :smt-lib-version 2.6)
;;; generated by SMT-LIB2 driver
;;; SMT-LIB2 driver: bit-vectors, common part
;;; SMT-LIB2: integer arithmetic
;; "pow2"
(declare-fun pow2 (Int) Int)

(declare-const two_power_size_minus_one Int)

;; "two_power_size_minus_one_val"
(assert (= two_power_size_minus_one (pow2 (- 16 1))))

;; "min"
(define-fun min ((x Int) (y Int)) Int
  (ite (<= x y) x y))

;; "max"
(define-fun max ((x Int) (y Int)) Int
  (ite (<= x y) y x))

;; "Min_r"
(assert (forall ((x Int) (y Int)) (=> (<= y x) (= (min x y) y))))

;; "Max_l"
(assert (forall ((x Int) (y Int)) (=> (<= y x) (= (max x y) x))))

;; "Min_comm"
(assert (forall ((x Int) (y Int)) (= (min x y) (min y x))))

;; "Max_comm"
(assert (forall ((x Int) (y Int)) (= (max x y) (max y x))))

;; "Min_assoc"
(assert
  (forall ((x Int) (y Int) (z Int)) (= (min (min x y) z) (min x (min y z)))))

;; "Max_assoc"
(assert
  (forall ((x Int) (y Int) (z Int)) (= (max (max x y) z) (max x (max y z)))))

(declare-sort gf16_normal_limb 0)

;; "to_rep"
(declare-fun to_rep (gf16_normal_limb) (_ BitVec 16))

;; "of_rep"
(declare-fun of_rep ((_ BitVec 16)) gf16_normal_limb)

;; "inversion_axiom"
(assert
  (forall ((x gf16_normal_limb))
    (! (= (of_rep (to_rep x)) x) :pattern ((to_rep x)) )))

;; "range_axiom"
(assert true)

;; "coerce_axiom"
(assert
  (forall ((x (_ BitVec 16)))
    (! (= (to_rep (of_rep x)) x) :pattern ((to_rep (of_rep x))) )))

(declare-sort map1 0)

;; "has_bounds"
(declare-fun has_bounds (map1
  Int
  Int) Bool)

;; "get"
(declare-fun get (map1
  Int) gf16_normal_limb)

(declare-const x map1)

(declare-sort gf32_any_limb 0)

;; "gf32_any_limb'int"
(declare-fun gf32_any_limbqtint (gf32_any_limb) Int)

;; "gf32_any_limb'axiom"
(assert
  (forall ((i gf32_any_limb))
    (and
      (<= (- 65536) (gf32_any_limbqtint i))
      (<= (gf32_any_limbqtint i) 132051011))))

;; "in_range"
(define-fun in_range ((x1 Int)) Bool
  (and (<= (- 65536) x1) (<= x1 132051011)))

;; "to_rep"
(define-fun to_rep1 ((x1 gf32_any_limb)) Int
  (gf32_any_limbqtint x1))

;; "of_rep"
(declare-fun of_rep1 (Int) gf32_any_limb)

;; "inversion_axiom"
(assert
  (forall ((x1 gf32_any_limb))
    (! (= (of_rep1 (to_rep1 x1)) x1) :pattern ((to_rep1 x1)) )))

;; "range_axiom"
(assert
  (forall ((x1 gf32_any_limb))
    (! (in_range (to_rep1 x1)) :pattern ((to_rep1 x1)) )))

;; "coerce_axiom"
(assert
  (forall ((x1 Int))
    (! (=> (in_range x1) (= (to_rep1 (of_rep1 x1)) x1)) :pattern ((to_rep1
                                                                    (of_rep1
                                                                    x1))) )))

(declare-sort map2 0)

;; "has_bounds"
(declare-fun has_bounds1 (map2
  Int
  Int) Bool)

;; "get"
(declare-fun get1 (map2
  Int) gf32_any_limb)

;; "temp_____aggregate_def_199"
(declare-fun temp_____aggregate_def_199 (Int
  Int
  Int
  Int
  Int
  Int
  Int
  Int
  Int
  Int
  Int
  Int
  Int
  Int
  Int
  Int) map2)

;; Goal "def'vc"
;; File "sparknacl-utils.adb", line 237, characters 0-0
(assert
  (not
  (=>
    (has_bounds x 0 15)
    (forall ((o (_ BitVec 16)))
      (=>
        (= (to_rep (get x 15)) o)
        (let ((o1 (bv2nat o)))
          (forall ((o2 (_ BitVec 16)))
            (=>
              (= (to_rep (get x 14)) o2)
              (let ((o3 (bv2nat o2)))
                (forall ((o4 (_ BitVec 16)))
                  (=>
                    (= (to_rep (get x 13)) o4)
                    (let ((o5 (bv2nat o4)))
                      (forall ((o6 (_ BitVec 16)))
                        (=>
                          (= (to_rep (get x 12)) o6)
                          (let ((o7 (bv2nat o6)))
                            (forall ((o8 (_ BitVec 16)))
                              (=>
                                (= (to_rep (get x 11)) o8)
                                (let ((o9 (bv2nat o8)))
                                  (forall ((o10 (_ BitVec 16)))
                                    (=>
                                      (= (to_rep (get x 10)) o10)
                                      (let ((o11 (bv2nat o10)))
                                        (forall ((o12 (_ BitVec 16)))
                                          (=>
                                            (= (to_rep (get x 9)) o12)
                                            (let ((o13 (bv2nat o12)))
                                              (forall ((o14 (_ BitVec 16)))
                                                (=>
                                                  (= (to_rep (get x 8)) o14)
                                                  (let ((o15 (bv2nat o14)))
                                                    (forall ((o16 (_ BitVec 16)))
                                                      (=>
                                                        (= (to_rep (get x 7)) o16)
                                                        (let ((o17 (bv2nat o16)))
                                                          (forall ((o18 (_ BitVec 16)))
                                                            (=>
                                                              (= (to_rep
                                                                   (get x 6)) o18)
                                                              (let ((o19 (bv2nat o18)))
                                                                (forall 
                                                                  ((o20 (_ BitVec 16)))
                                                                  (=>
                                                                    (= 
                                                                    (to_rep
                                                                    (get x 5)) o20)
                                                                    (let ((o21 (bv2nat o20)))
                                                                    (forall 
                                                                    ((o22 (_ BitVec 16)))
                                                                    (=>
                                                                    (= 
                                                                    (to_rep
                                                                    (get x 4)) o22)
                                                                    (let ((o23 (bv2nat o22)))
                                                                    (forall 
                                                                    ((o24 (_ BitVec 16)))
                                                                    (=>
                                                                    (= 
                                                                    (to_rep
                                                                    (get x 3)) o24)
                                                                    (let ((o25 (bv2nat o24)))
                                                                    (forall 
                                                                    ((o26 (_ BitVec 16)))
                                                                    (=>
                                                                    (= 
                                                                    (to_rep
                                                                    (get x 2)) o26)
                                                                    (let ((o27 (bv2nat o26)))
                                                                    (forall 
                                                                    ((o28 (_ BitVec 16)))
                                                                    (=>
                                                                    (= 
                                                                    (to_rep
                                                                    (get x 1)) o28)
                                                                    (let ((o29 (bv2nat o28)))
                                                                    (forall 
                                                                    ((o30 (_ BitVec 16)))
                                                                    (=>
                                                                    (= 
                                                                    (to_rep
                                                                    (get x 0)) o30)
                                                                    (let ((o31 (bv2nat o30)))
                                                                    (forall 
                                                                    ((temp___1083 map2))
                                                                    (=>
                                                                    (and
                                                                    (and
                                                                    (and
                                                                    (and
                                                                    (= 
                                                                    (to_rep1
                                                                    (get1
                                                                    temp___1083
                                                                    0)) o31)
                                                                    (= 
                                                                    (to_rep1
                                                                    (get1
                                                                    temp___1083
                                                                    1)) o29))
                                                                    (and
                                                                    (and
                                                                    (and
                                                                    (and
                                                                    (= 
                                                                    (to_rep1
                                                                    (get1
                                                                    temp___1083
                                                                    2)) o27)
                                                                    (= 
                                                                    (to_rep1
                                                                    (get1
                                                                    temp___1083
                                                                    3)) o25))
                                                                    (and
                                                                    (= 
                                                                    (to_rep1
                                                                    (get1
                                                                    temp___1083
                                                                    4)) o23)
                                                                    (= 
                                                                    (to_rep1
                                                                    (get1
                                                                    temp___1083
                                                                    5)) o21)))
                                                                    (and
                                                                    (and
                                                                    (= 
                                                                    (to_rep1
                                                                    (get1
                                                                    temp___1083
                                                                    6)) o19)
                                                                    (= 
                                                                    (to_rep1
                                                                    (get1
                                                                    temp___1083
                                                                    7)) o17))
                                                                    (= 
                                                                    (to_rep1
                                                                    (get1
                                                                    temp___1083
                                                                    8)) o15)))
                                                                    (and
                                                                    (and
                                                                    (and
                                                                    (= 
                                                                    (to_rep1
                                                                    (get1
                                                                    temp___1083
                                                                    9)) o13)
                                                                    (= 
                                                                    (to_rep1
                                                                    (get1
                                                                    temp___1083
                                                                    10)) o11))
                                                                    (and
                                                                    (= 
                                                                    (to_rep1
                                                                    (get1
                                                                    temp___1083
                                                                    11)) o9)
                                                                    (= 
                                                                    (to_rep1
                                                                    (get1
                                                                    temp___1083
                                                                    12)) o7)))
                                                                    (and
                                                                    (and
                                                                    (= 
                                                                    (to_rep1
                                                                    (get1
                                                                    temp___1083
                                                                    13)) o5)
                                                                    (= 
                                                                    (to_rep1
                                                                    (get1
                                                                    temp___1083
                                                                    14)) o3))
                                                                    (= 
                                                                    (to_rep1
                                                                    (get1
                                                                    temp___1083
                                                                    15)) o1)))))
                                                                    (has_bounds1
                                                                    temp___1083
                                                                    0
                                                                    15))
                                                                    (= temp___1083 
                                                                    (temp_____aggregate_def_199
                                                                    o31
                                                                    o29
                                                                    o27
                                                                    o25
                                                                    o23
                                                                    o21
                                                                    o19
                                                                    o17
                                                                    o15
                                                                    o13
                                                                    o11
                                                                    o9
                                                                    o7
                                                                    o5
                                                                    o3
                                                                    o1)))
                                                                    (forall 
                                                                    ((i Int))
                                                                    (=>
                                                                    (and
                                                                    (<= 0 i)
                                                                    (<= i 15))
                                                                    (<= 0 
                                                                    (to_rep1
                                                                    (get1
                                                                    temp___1083
                                                                    i))))))))))))))))))))))))))))))))))))))))))))))))))))))))))

(check-sat)
